
(set-logic ALL) 

(declare-datatype MyList ((Nil) (Cons (head Real) (tail MyList)) )) 
(declare-fun l0 () MyList) 
(declare-fun l1 () MyList) 
(declare-fun l2 () MyList) 
(declare-fun l3 () MyList) 
(declare-fun i0 () Real) 
(declare-fun i1 () Real) 
(assert (is-Cons l1) )
(assert (or (= l2 Nil) (is-Cons Nil) (= l3 Nil)) )
(assert (or (is-Cons l2) (= l1 Nil) (is-Nil Nil) (= l1 l2)) )
(assert (not (is-Cons Nil)) )
(assert (= l3 Nil) )
(assert (= l3 Nil) )
(assert (is-Cons Nil) )
(assert (is-Nil Nil) )
(check-sat)
